c Sudoku solution
p cnf 729 0
129 0
157 0
217 0
252 0
288 0
348 0
361 0
416 0
465 0
484 0
593 0
623 0
664 0
681 0
696 0
728 0
755 0
769 0
821 0
834 0
868 0
899 0
926 0
941 0
987 0
847 0
737 0
567 0
427 0
677 0
962 0
397 0
166 0
263 0
635 0
524 0
322 0
225 0
145 0
995 0
978 0
815 0
712 0
954 0
642 0
244 0
359 0
291 0
236 0
333 0
314 0
279 0
913 0
939 0
658 0
619 0
771 0
794 0
174 0
183 0
192 0
873 0
882 0
786 0
743 0
856 0
449 0
453 0
551 0
546 0
431 0
518 0
532 0
111 0
138 0
472 0
498 0
376 0
385 0
575 0
589 0
